0 12 3 15 15 15 14 13 12 12 10 11 9 10 9 9 41 6 4 8 10 11 11 13 13 12 10 10 3 14 14 8 5 4 3 6 9 11 8 8 10 13 14 13 15 8 8 7 11 6
14 0 13 11 10 10 9 8 7 7 5 6 5 5 7 7 35 9 9 9 8 9 9 5 4 3 4 5 10 12 10 7 8 10 11 10 7 9 6 12 9 15 15 11 13 13 12 13 10 13
3 11 0 14 17 18 17 16 15 15 11 12 10 10 7 7 39 4 2 6 8 9 10 11 11 10 9 11 1 12 10 6 4 3 1 8 9 9 6 10 12 14 15 13 15 8 8 7 13 6
13 11 13 0 18 18 17 17 15 16 14 15 13 13 16 15 35 14 9 8 6 5 3 12 12 11 12 14 10 8 6 7 10 12 12 17 16 6 8 18 17 17 18 19 22 13 13 12 17 12
16 10 18 19 0 3 4 7 6 7 7 9 8 8 11 11 35 13 16 16 15 16 17 12 11 10 9 10 18 20 18 15 16 18 18 13 10 16 14 15 12 17 18 13 15 17 15 18 13 17
16 10 17 18 3 0 3 4 6 6 8 9 8 8 11 11 34 13 16 16 16 16 16 11 11 10 9 10 17 20 17 14 15 18 16 14 10 16 13 15 12 17 18 13 16 16 15 17 13 16
15 9 18 18 4 3 0 5 6 6 6 8 7 7 10 10 34 12 15 15 14 15 16 11 10 9 8 9 17 19 16 14 15 17 15 13 9 15 13 14 11 17 17 12 14 15 15 17 12 15
14 8 15 16 7 7 6 0 4 4 5 7 6 6 9 8 32 11 14 14 13 14 14 10 9 8 7 8 15 17 15 12 13 16 15 12 8 14 11 13 10 15 16 12 14 14 13 15 11 14
13 6 13 15 6 6 6 4 0 1 4 6 5 6 7 7 34 9 13 13 12 12 13 8 8 6 5 7 14 16 14 11 12 14 12 11 7 12 10 11 8 14 14 11 13 12 12 14 9 13
13 6 14 15 6 6 6 4 1 0 4 6 5 7 8 7 34 9 13 13 12 12 13 8 8 7 5 7 14 16 13 11 12 14 12 11 7 13 10 12 8 14 15 10 13 13 12 14 9 13
11 5 15 14 6 6 5 4 3 3 0 1 1 2 5 5 33 7 12 11 11 11 11 7 6 5 4 4 12 15 12 10 11 12 12 7 5 11 9 10 6 12 12 9 11 11 10 12 8 11
13 5 13 14 8 7 7 6 5 5 1 0 2 3 6 5 34 7 12 12 11 11 12 7 7 6 4 5 13 15 13 10 11 13 12 8 6 11 9 10 7 12 13 9 11 11 10 12 8 12
10 5 12 14 8 7 7 6 5 5 1 2 0 2 5 4 35 6 11 11 10 11 11 7 6 5 4 4 12 14 12 9 10 12 11 7 4 11 8 9 6 12 12 8 10 10 9 11 7 10
10 6 11 15 8 8 7 7 5 6 4 4 3 0 3 2 40 4 11 13 11 11 12 7 7 6 3 2 11 17 13 10 11 10 9 6 3 12 9 8 5 10 11 7 9 9 8 10 6 9
9 6 11 15 9 8 8 7 6 6 3 4 2 2 0 2 37 4 13 12 11 12 12 7 7 6 3 1 11 16 13 10 11 9 9 6 4 12 10 9 6 11 12 8 10 10 9 11 7 10
7 8 8 16 11 11 11 10 9 9 6 7 5 5 3 0 42 2 10 13 13 13 14 10 9 8 5 4 9 17 15 12 9 7 7 6 7 13 11 10 8 14 15 11 13 11 11 11 10 9
41 33 39 33 34 34 34 35 32 33 33 35 34 35 37 36 0 39 36 35 34 32 30 30 31 31 35 37 37 38 36 34 37 38 38 39 37 33 34 42 39 43 44 38 41 39 39 38 39 39
6 9 5 14 13 13 12 11 10 10 8 8 7 6 4 4 41 0 7 11 11 11 12 10 10 9 8 6 7 15 12 10 6 5 5 5 6 11 8 9 7 13 14 10 12 10 10 10 9 8
4 8 5 9 15 15 15 14 13 13 11 12 10 11 12 11 37 9 0 3 5 6 7 9 9 7 9 12 1 10 8 4 3 6 4 9 12 6 3 10 12 12 12 15 18 7 7 5 13 5
9 8 9 7 16 15 15 14 13 13 11 12 10 10 13 12 36 12 4 0 2 4 7 9 10 7 9 11 5 8 6 4 6 9 8 11 13 6 4 11 12 12 12 15 18 7 8 6 11 6
10 8 10 6 15 15 14 13 12 12 11 11 10 10 12 12 35 11 5 2 0 3 5 9 9 7 9 11 6 6 4 4 6 8 8 11 12 4 4 12 12 12 13 16 18 8 8 7 12 7
12 10 12 4 17 17 16 15 15 14 13 13 12 12 15 14 35 12 7 4 3 0 4 11 11 9 11 13 8 5 3 6 9 10 10 13 14 4 7 13 13 13 14 17 20 9 10 8 14 8
10 7 9 6 15 14 14 13 12 12 10 11 10 10 12 11 33 11 6 5 3 2 0 9 9 7 9 10 7 7 6 3 6 8 8 12 12 2 4 13 13 13 13 15 18 8 9 7 13 8
13 4 12 12 11 11 11 10 9 9 7 8 6 7 9 9 31 10 10 9 9 9 10 0 2 4 5 7 12 13 11 8 10 10 11 11 9 9 7 14 10 16 16 13 15 14 14 13 11 13
12 4 11 11 11 11 10 9 9 9 7 7 6 6 9 8 31 10 9 9 8 8 9 4 0 2 5 7 10 12 10 7 8 10 10 11 8 9 6 13 10 15 16 12 14 13 14 12 11 12
12 3 11 11 10 10 10 9 7 7 5 6 5 5 8 7 32 10 9 8 8 8 9 4 3 0 4 6 10 12 10 7 8 9 9 10 7 8 6 12 9 15 15 11 13 13 13 12 10 12
11 5 10 13 9 9 8 7 6 6 5 6 5 4 4 4 36 6 11 10 9 10 11 6 5 4 0 2 12 14 12 9 9 10 9 9 6 10 8 11 8 15 14 10 12 12 11 14 9 12
11 5 10 14 10 9 9 8 7 7 5 5 4 2 3 3 36 5 11 12 10 11 12 7 6 5 1 0 11 15 13 9 9 9 9 8 5 10 8 10 7 13 13 9 11 11 10 12 8 11
3 9 4 11 16 16 16 15 14 14 12 12 11 11 12 8 37 6 1 4 6 7 8 10 10 8 10 11 0 10 9 4 2 4 3 7 11 7 4 9 11 13 13 14 17 6 6 5 12 4
14 12 15 8 19 19 19 18 17 17 15 16 14 15 17 16 40 16 9 8 6 7 9 14 14 12 14 16 10 0 3 8 11 13 13 14 17 8 9 15 15 15 16 19 22 11 11 10 15 10
13 11 13 4 19 18 18 17 16 16 14 15 13 14 16 15 35 14 8 7 5 6 5 12 12 10 13 14 10 4 0 7 10 12 12 14 16 7 8 15 15 15 15 19 21 10 11 9 15 9
8 6 8 7 14 14 13 12 11 11 9 10 9 9 11 10 34 10 4 4 3 4 5 8 8 6 8 9 5 8 5 0 4 7 6 13 11 4 1 14 12 15 16 15 17 9 10 8 14 9
5 8 4 10 15 15 14 14 13 13 11 12 10 10 11 10 37 8 2 5 6 7 8 9 10 7 9 11 2 12 9 4 0 4 3 10 12 7 3 12 13 14 15 16 18 8 9 7 14 6
5 8 4 11 16 15 15 14 13 13 11 12 10 11 10 9 38 7 4 8 7 8 8 9 10 8 10 10 3 11 9 6 2 0 3 10 12 8 4 11 13 16 17 15 17 9 10 8 14 7
4 9 3 11 15 13 13 12 12 12 9 10 9 8 6 6 38 3 5 8 8 9 9 9 10 8 7 7 4 12 10 7 4 3 0 6 7 8 6 11 8 14 15 11 14 9 9 8 10 7
7 10 9 18 12 12 12 11 10 10 7 8 6 7 8 8 39 6 9 12 15 16 17 11 11 10 9 8 9 16 15 13 11 10 9 0 6 16 13 5 4 10 10 6 8 8 7 8 5 6
11 8 12 17 10 10 10 9 8 8 6 6 5 5 6 7 37 8 13 16 13 14 14 10 9 8 7 6 12 20 15 12 13 12 11 6 0 13 11 8 5 12 13 7 9 9 8 10 6 11
11 9 11 6 16 16 15 14 13 13 12 12 11 11 14 13 33 12 6 6 4 3 4 10 10 8 10 12 7 8 6 4 7 9 9 15 13 0 5 16 15 18 18 17 19 10 10 9 16 11
7 6 6 8 13 13 12 12 10 10 9 10 8 8 11 10 35 10 4 5 5 5 6 7 7 5 7 9 4 9 7 2 3 6 5 11 10 5 0 13 12 16 16 14 16 10 11 10 13 9
9 10 11 19 13 13 12 11 10 11 8 9 7 8 9 9 40 8 11 14 16 18 18 12 12 11 9 9 10 18 16 15 12 12 11 4 6 16 14 0 3 10 10 8 10 8 7 8 4 7
10 10 11 19 12 12 12 11 10 10 8 8 7 7 8 8 39 9 10 13 12 16 17 11 11 10 9 8 9 15 14 13 11 12 10 6 5 16 13 3 0 5 6 7 9 4 3 6 4 6
13 13 15 15 16 16 15 14 13 13 11 12 10 10 12 12 43 13 13 10 11 13 14 15 14 13 12 12 12 15 13 16 14 15 13 9 8 13 16 7 7 0 2 9 11 6 6 8 4 9
17 16 18 18 19 19 18 18 16 16 14 15 13 13 15 15 46 15 13 13 13 15 16 18 18 16 15 15 15 18 15 15 17 19 17 13 11 16 17 10 10 3 0 12 14 10 10 10 8 12
15 12 16 21 13 13 12 13 12 12 10 11 9 10 11 11 39 12 17 19 18 18 19 14 14 13 11 11 16 24 20 17 17 16 15 10 8 18 16 11 8 12 11 0 3 12 11 13 8 14
16 14 17 22 15 15 14 15 14 14 11 12 10 11 12 12 42 13 18 20 19 19 20 16 15 14 13 12 18 24 21 18 18 17 16 11 9 19 17 12 9 13 13 2 0 13 12 14 9 16
8 14 9 15 16 16 16 15 14 14 12 12 11 11 12 13 43 10 6 10 7 10 13 16 15 14 13 12 5 14 8 10 8 10 8 7 9 13 10 6 6 7 8 11 13 0 1 2 7 3
8 13 10 17 16 16 15 14 13 13 11 11 10 10 11 12 40 11 7 11 13 14 15 15 15 13 12 11 7 15 9 11 9 10 9 8 8 14 11 6 6 7 7 11 12 1 0 3 7 4
6 13 8 14 16 16 15 14 13 13 11 12 10 11 12 12 41 9 5 6 8 10 12 15 15 13 12 12 4 13 11 9 7 9 7 6 9 12 8 5 7 9 10 12 14 2 3 0 8 2
12 10 13 19 13 13 12 11 10 10 8 9 7 8 9 9 40 10 12 16 12 16 17 12 12 10 9 9 11 16 14 16 14 14 13 7 5 19 15 6 3 5 6 6 8 7 6 8 0 8
6 12 7 16 15 15 14 13 12 12 10 10 9 10 11 11 42 9 4 8 10 12 12 14 14 12 11 11 4 12 14 8 6 8 6 5 9 11 8 6 9 10 11 12 14 3 4 2 10 0
